c --- [ banner ] -------------------------------------------------------------
c 
c CaDiCaL Radically Simplified CDCL SAT Solver
c Copyright (c) 2016-2021 A. Biere, M. Fleury, N. Froleyks
c 
c Version 1.5.2 9c38a080b32c28d805e8e6ca21849856b0cda605
c g++ (Ubuntu 7.5.0-3ubuntu1~18.04) 7.5.0 -Wall -Wextra -O3 -DNDEBUG
c Wed Feb 16 23:15:36 EST 2022 Linux fac-vanhoeve01 5.4.0-99-generic x86_64
c 
c --- [ limit ] --------------------------------------------------------------
c 
c setting time limit to 600 seconds real time (due to '-t 600')
c setting conflict limit to 1000000000 conflicts (due to '1000000000')
c 
c --- [ parsing input ] ------------------------------------------------------
c 
c reading DIMACS file from 'ddfwcnfs/wap04a.col_40.cnf'
c opening file to read 'ddfwcnfs/wap04a.col_40.cnf'
c found 'p cnf 209240 11517191' header
c parsed 11517191 clauses in 6.91 seconds process time
c closing file 'ddfwcnfs/wap04a.col_40.cnf'
c after reading 199732645 bytes 190.5 MB
c 
c --- [ options ] ------------------------------------------------------------
c 
c all options are set to their default value
c 
c --- [ solving ] ------------------------------------------------------------
c 
c time measured in process time since initialization
c 
c  seconds   reductions  redundant   irredundant
c          MB    restarts       trail         variables
c           level   conflicts       glue            remaining
c 
c *  6.91 997  0 0   0    0    0  0% 0 11515591 207640 99%
c {  6.95 1000  0 0   0    0    0  0% 0 11515591 207640 99%
c -  9.11 1000 40 1   0  301  103  2% 36 11515591 207640 99%
c }  9.33 1000 40 1   0 1000  372  2% 36 11515591 207640 99%
c [  9.33 1000  0 1   0 1000  372  0% 0 11515591 207640 99%
c O  9.33 1000 55 1   0 1005  376  2% 37 11515591 207640 99%
c - 15.10 1265 43 2   1 2137  944  2% 39 11515591 207640 99%
c ] 15.24 1265 45 2   1 3002 1590  2% 40 11515591 207640 99%
c { 15.24 1265 40 2   1 3002 1590  2% 36 11515591 207640 99%
c F 15.25 1265 40 2   1 3009 1596  2% 36 11515591 207640 99%
c - 19.50 1265 45 3   9 4892 2265  3% 38 11515591 207640 99%
c # 30.33 1258 44 3  12 6010 3012  3% 38 11515591 207640 99%
c } 30.46 1258 50 3  12 7002 3813  3% 38 11515591 207640 99%
c [ 30.46 1258 45 3  12 7002 3813  2% 40 11515591 207640 99%
c - 35.26 1259 47 4  13 8565 3596  3% 41 11515591 207640 99%
c I 35.53 1259 53 4  14 10011 4698  3% 41 11515591 207640 99%
c s 40.10 1259 5294 4  16 11587 5555  9% 50 11515591 207640 99%
c e 62.82 1260 5294 4  16 11587 1703  9% 50 10703141 198403 95%
c - 71.11 1257 9355 5  16 13159 2425 15% 53 10703141 198403 95%
c ] 81.60 1257 14060 5  17 15002 3979 21% 66 10703141 198403 95%
c 
c  seconds    reductions   redundant    irredundant
c          MB     restarts        trail          variables
c            level    conflicts       glue             remaining
c 
c { 81.60 1257 50 5  17 15002 3979  3% 38 10703141 198403 95%
c B 81.66 1257 89 5  17 15012 3989  3% 38 10703141 198403 95%
c - 85.94 1258 229 6  22 18612 4685  3% 34 10703141 198403 95%
c W 90.40 1258 188 6  22 21015 6464  3% 34 10703141 198403 95%
c - 94.94 1257 150 7  26 24976 5923  3% 33 10703141 198403 95%
c F 95.37 1257 131 7  26 28018 8038  3% 32 10703141 198403 95%
c } 106.41 1257 116 7  28 31002 10191  3% 32 10703141 198403 95%
c [ 106.41 1257 14060 7  28 31002 10191 21% 66 10703141 198403 95%
c - 110.85 1258 12429 8  28 32247 7251 19% 62 10703141 198403 95%
c s 114.59 1258 10169 8  30 34602 8319 17% 59 10703141 198403 95%
c s 128.70 1258 10169 8  30 34602 8109 17% 59 10703141 198403 95%
c ^ 131.09 1258 10169 8  30 34602 8109 17% 59 10703141 198403 95%
c B 131.29 1258 9146 8  31 36021 9182 15% 58 10703141 198403 95%
c - 137.31 1259 10895 9  34 40426 8931 19% 66 10703141 198403 95%
c W 144.15 1259 9656 9  35 45022 12453 22% 80 10703141 198403 95%
c - 150.22 1260 9822 10  36 49515 9358 28% 80 10703141 198403 95%
c O 163.09 1260 8236 10  37 55025 13498 25% 82 10703141 198403 95%
c - 168.23 1259 7112 11  41 59512 9898 22% 76 10703141 198403 95%
c ] 168.83 1259 6408 11  43 63003 12224 20% 73 10703141 198403 95%
c { 168.83 1259 116 11  43 63003 12224  3% 32 10703141 198403 95%
c 
c  seconds      reductions     redundant    irredundant
c           MB       restarts         trail          variables
c              level     conflicts        glue             remaining
c 
c B 169.21 1259 111 11  43 66027 14803  3% 31 10703141 198403 95%
c s 170.54 1259 125 11 846 69124 15578  4% 32 10703141 198403 95%
c s 191.77 1259 125 11 846 69124 15378  4% 32 10703141 198403 95%
c ^ 193.76 1259 125 11 846 69124 15378  4% 32 10703141 198403 95%
c - 197.35 1258 121 12 1171 70421 8991  4% 32 10703141 198403 95%
c W 210.71 1258 101 12 2924 78028 11323  4% 33 10703141 198403 95%
c - 214.33 1257 94 13 3734 82238 6238  4% 34 10703141 198403 95%
c # 215.28 1257 84 13 4582 91030 9840  4% 35 10703141 198403 95%
c - 218.88 1258 80 14 4654 94964 7366  4% 35 10703141 198403 95%
c B 228.31 1258 71 14 4750 105031 13425  4% 35 10703141 198403 95%
c - 231.85 1258 70 15 4916 108597 9591  4% 35 10703141 198403 95%
c s 232.85 1258 66 15 5090 115154 12313  4% 36 10703141 198403 95%
c s 251.14 1258 66 15 5090 115154 10860  4% 36 10703141 198403 95%
c ^ 254.04 1258 66 15 5090 115154 10860  4% 36 10703141 198403 95%
c W 263.88 1258 64 15 5263 120033 13064  4% 36 10703141 198403 95%
c - 270.53 1258 63 16 5313 123139 8855  4% 36 10703141 198403 95%
c } 271.19 1258 61 16 5362 127003 10692  4% 36 10703141 198403 95%
c [ 271.19 1258 6408 16 5362 127003 10692 20% 73 10703141 198403 95%
c B 274.89 1258 8412 16 5367 136034 17713 23% 86 10703141 198403 95%
c - 280.66 1262 7903 17 5368 138591 12882 22% 84 10703141 198403 95%
c 
c  seconds       reductions       redundant    irredundant
c           MB        restarts           trail          variables
c              level       conflicts         glue             remaining
c 
c W 305.14 1262 5765 17 5371 153036 21850 17% 73 10703141 198403 95%
c - 311.52 1261 7422 18 5371 154952 14188 19% 80 10703141 198403 95%
c I 324.27 1261 15488 18 5374 171044 27848 26% 144 10703141 198403 95%
c - 330.06 1279 15673 19 5375 172222 18514 26% 142 10703141 198403 95%
c s 330.69 1279 15689 19 5375 172690 18203 26% 142 10703141 198403 95%
c w 343.11 1279 15689 19 5375 172690 18203 26% 142 10703141 198403 95%
c s 354.59 1279 15689 19 5375 172690 18017 26% 142 10703141 198403 95%
c ^ 357.67 1279 15689 19 5375 172690 18017 26% 142 10703141 198403 95%
c B 376.94 1279 12980 19 5385 190048 32320 25% 133 10703141 198403 95%
c - 382.22 1265 12984 20 5385 190400 19502 25% 133 10703141 198403 95%
c - 394.47 1266 10977 21 5393 209485 20001 25% 133 10703141 198403 95%
c W 404.87 1266 10904 21 5393 210049 20468 25% 133 10703141 198403 95%
c - 428.82 1266 8761 22 5401 229482 20906 23% 130 10703141 198403 95%
c O 429.11 1266 8606 22 5401 231050 22043 24% 129 10703141 198403 95%
c s 431.90 1266 7514 22 5402 241732 29486 21% 118 10703141 198403 95%
c w 444.51 1266 7514 22 5402 241732 29482 21% 118 10703141 198403 95%
c s 456.78 1266 7514 22 5402 241732 27979 21% 118 10703141 198403 95%
c ^ 460.02 1266 7514 22 5402 241732 27979 21% 118 10703141 198403 95%
c - 467.34 1261 6753 23 5402 250385 19307 19% 111 10703141 198403 95%
c B 468.01 1261 6538 23 5403 253054 21401 18% 108 10703141 198403 95%
c 
c  seconds       reductions       redundant     irredundant
c           MB        restarts           trail           variables
c              level       conflicts          glue             remaining
c 
c ] 468.39 1261 7587 23 5403 255004 22879 19% 108 10703141 198403 95%
c { 468.39 1261 61 23 5403 255004 22879  4% 36 10703141 198403 95%
c - 475.96 1260 62 24 9710 272199 15126  4% 41 10703141 198403 95%
c F 489.17 1260 62 24 10668 276056 16524  4% 42 10703141 198403 95%
c - 498.40 1260 57 25 10674 294921 18565  4% 41 10703141 198403 95%
c B 499.45 1260 56 25 10674 300061 22152  3% 41 10703141 198403 95%
c - 508.00 1263 97 26 12527 318551 23572  4% 43 10703141 198403 95%
c s 509.22 1263 104 26 12527 322284 25863  4% 42 10703141 198403 95%
c w 521.77 1263 104 26 12527 322284 25854  4% 42 10703141 198403 95%
c s 533.73 1263 104 26 12527 322284 25739  4% 42 10703141 198403 95%
c W 549.60 1263 109 26 12527 325063 28010  4% 42 10703141 198403 95%
c - 570.87 1262 98 27 12543 343090 24763  3% 42 10703141 198403 95%
c # 572.20 1262 92 27 12543 351066 29638  3% 41 10703141 198403 95%
c - 580.26 1261 85 28 12543 368537 26438  3% 40 10703141 198403 95%
c B 582.15 1261 82 28 12543 378068 34175  3% 39 10703141 198403 95%
c - 603.36 1262 80 29 12597 394893 28218  3% 39 10703141 198403 95%
c } 603.37 1262 80 29 12597 394895 28220  3% 39 10703141 198403 95%
c ? 603.37 1262 80 29 12597 394895 28220  3% 39 10703141 198403 95%
c 
c --- [ result ] -------------------------------------------------------------
c 
c UNKNOWN
c 
c --- [ run-time profiling ] -------------------------------------------------
c 
c process time taken by individual solving procedures
c (percentage relative to process time for solving)
c 
c       318.02   53.32% search
c       278.44   46.68% simplify
c       148.34   24.87% stable
c       115.63   19.39% unstable
c        67.33   11.29% ternary
c        67.24   11.27% elim
c        56.82    9.53% vivify
c        54.01    9.06% walk
c        11.89    1.99% subsume
c        11.15    1.87% probe
c         6.91    1.16% parse
c         0.04    0.01% lucky
c   =================================
c       596.46   98.85% solve
c 
c last line shows process time for solving
c (percentage relative to total process time)
c 
c --- [ statistics ] ---------------------------------------------------------
c 
c chronological:             69534        17.61 %  of conflicts
c conflicts:                394895       662.06    per second
c decisions:               2042010      3423.55    per second
c eliminated:                 9237         4.41 %  of all variables
c fixed:                      1600         0.76 %  of all variables
c learned:                  391002        99.01 %  per conflict
c learned_lits:           58711048       100.00 %  learned literals
c minimized:                     0         0.00 %  learned literals
c shrunken:               24469903        41.68 %  learned literals
c minishrunken:            1203630         2.05 %  learned literals
c propagations:          149822947         0.25 M  per second
c reduced:                  231241        58.56 %  per conflict
c rephased:                     27     14625.74    interval
c restarts:                  12597        31.35    interval
c stabilizing:                   4        43.05 %  of conflicts
c subsumed:                 127671         0.53 %  of all clauses
c strengthened:              19278         0.08 %  of all clauses
c vivified:                     28         0.00 %  of all clauses
c walked:                        7     56413.57    interval
c weakened:                 975519         2.70    average size
c 
c seconds are measured in process time for solving
c 
c --- [ resources ] ----------------------------------------------------------
c 
c total process time since initialization:       603.37    seconds
c total real time since initialization:          603.43    seconds
c maximum resident set size of process:         1616.96    MB
c 
c --- [ shutting down ] ------------------------------------------------------
c 
c exit 0
